(set-logic HORN)
(declare-fun !inv0 (Int (Array Int Int) Int Int Int ) Bool)
(assert (forall ((N@0 Int)(a@0 (Array Int Int))(marker@0 Int)(pos@0 Int)(a@1 (Array Int Int))(i@0 Int)) (=> (and (> |N@0| 0) (= |a@1| (store |a@0| |pos@0| |marker@0|)) (= |i@0| 0) (>= |pos@0| 0) (< |pos@0| |N@0|)) (!inv0 |N@0| |a@1| |marker@0| |pos@0| |i@0|))))
(assert (forall ((N@0 Int)(a@0 (Array Int Int))(marker@0 Int)(pos@0 Int)(i@0 Int)) (=> (and (!inv0 |N@0| |a@0| |marker@0| |pos@0| |i@0|) (not (not (= (select |a@0| |i@0|) |marker@0|))) (not (<= |i@0| |pos@0|))) false)))
(assert (forall ((N@0 Int)(a@0 (Array Int Int))(marker@0 Int)(pos@0 Int)(i@0 Int)(i@1 Int)) (=> (and (!inv0 |N@0| |a@0| |marker@0| |pos@0| |i@0|) (not (= (select |a@0| |i@0|) |marker@0|)) (= |i@1| (+ |i@0| 1))) (!inv0 |N@0| |a@0| |marker@0| |pos@0| |i@1|))))
(check-sat)